p cnf 15 28
-15 14 -1 0
15 13 11 0
-15 13 -5 0
-15 13 -3 0
-15 -12 3 0
15 -8 5 0
15 6 -2 0
-15 5 -3 0
-14 13 10 0
14 -13 -2 0
14 -10 -2 0
14 -8 -6 0
-14 -7 -6 0
-14 7 -2 0
-13 9 -4 0
13 7 -3 0
-13 -7 -3 0
13 -5 2 0
12 -10 -2 0
12 -8 4 0
11 10 4 0
-11 -9 7 0
-10 8 6 0
-10 8 4 0
9 8 3 0
8 7 1 0
8 -5 4 0
-6 -3 2 0
